53
22
0 25 26 27 36 39 41 42 44 45 46 47 48 49 50 52
1 22 23 25 26 27 29 30 31 35 36 37 39 41 42 48 50
2 22 25 26 29 32 35 36 37 39 43 44 45 47 48 49 50
3 23 29 30 35 38 41 43 44 48 49 50
4 23 24 25 27 37 39 42 45 49 50
5 23 26 29 32 41 43 44 47 49 50 51
6 25 27 30 31 32 36 38 39 48 50 52
7 23 24 26 29 35 36 38 39 42 44 45 48 51 52
8 23 25 26 27 29 37 39 42 45 46 49 50
9 25 26 36 37 39 41 42
10 23 25 26 27 29 36 40 41 43 45 47 49 50 51
11 24 27 29 35 36 37 38 41 49 51 52
12 23 25 30 31 36 39 41 43 44 48
13 22 27 29 30 33 36 38 39 45 50
14 25 26 46 49 50
15 23 25 27 34 37 38 43
16 26 27 32 34 36 37 39 41 46 47 50
17 28 34 35 37 43 44 49
18 22 26 41 47 49
19 27 32 39 42 51
20 38 49
21 27 35
